HUN,8,6,847
2,63,3,35,5,95,4,5,1,88,0,87
4,12,0,20,3,50,2,9,5,33,1,26
2,32,5,25,1,8,4,87,3,71,0,77
4,97,5,73,3,99,1,21,2,5,0,80
2,88,5,59,1,70,3,82,4,25,0,29
4,31,5,59,0,9,2,82,3,56,1,25
0,58,2,65,3,46,1,76,5,31,4,84
3,29,1,88,0,84,4,10,5,99,2,78
